experiment/data/lkh-res/Vrp-Set-X-n317/Vrp-Set-X-n317-lkh/0.lkh1.vrp
NAME : 0
COMMENT : CVRP Instance
TYPE : CVRP
DIMENSION : 317
EDGE_WEIGHT_TYPE : EUC_2D
CAPACITY : 6
NODE_COORD_SECTION
1	0	0
2	97100	54400
3	56400	97600
4	26600	400
5	39500	9500
6	37900	27100
7	93600	53800
8	98000	57800
9	24200	9200
10	47600	7400
11	24700	15900
12	35900	10800
13	47300	94100
14	49000	94700
15	54800	95000
16	38900	86400
17	91600	66400
18	21200	9100
19	41500	18200
20	96100	55300
21	42300	23200
22	59600	93100
23	95500	56600
24	53400	9300
25	25200	600
26	95000	58000
27	51700	95000
28	94200	61800
29	63600	98100
30	62900	80900
31	50800	3500
32	10800	13000
33	39100	1900
34	20800	18300
35	99100	68000
36	42800	4800
37	27200	22000
38	93100	58100
39	32700	12800
40	96600	51400
41	31300	20200
42	26700	100
43	40400	92500
44	98500	59400
45	89500	42900
46	34800	1200
47	31600	25800
48	23800	2000
49	97000	49000
50	85400	58600
51	29300	10400
52	62800	91900
53	88000	59700
54	35300	24100
55	75300	72800
56	29100	9300
57	99300	43900
58	38200	12500
59	23000	3600
60	98400	47100
61	48900	2300
62	27700	13700
63	59300	17100
64	37800	20400
65	41100	8700
66	20700	8500
67	53800	99100
68	90600	63100
69	34300	7200
70	44500	6800
71	67300	26800
72	57600	95100
73	38800	6600
74	95300	50400
75	43400	14500
76	53000	1100
77	63200	87900
78	54100	96800
79	35300	85100
80	62900	86800
81	59300	89600
82	93600	41100
83	27200	4000
84	27600	9300
85	46900	16900
86	35900	89400
87	54800	99800
88	5200	6900
89	39700	5800
90	50700	14500
91	45100	16200
92	64600	99600
93	53200	90600
94	22000	12600
95	53600	83100
96	48200	21200
97	13700	5300
98	51100	99100
99	97800	50600
100	30000	11100
101	90700	71100
102	90800	48800
103	22200	13700
104	26600	4800
105	42300	6700
106	26800	12500
107	43400	2500
108	54800	98200
109	51100	88800
110	37100	25600
111	44000	17900
112	33100	8200
113	96500	43900
114	54500	96800
115	44700	4000
116	78500	66400
117	91500	66900
118	46800	9800
119	24700	600
120	27100	7000
121	26000	11000
122	90200	67900
123	92600	87400
124	58700	98800
125	36800	41900
126	35100	15800
127	96700	68500
128	55900	96800
129	27800	5600
130	87700	50700
131	35300	16400
132	98400	54000
133	38000	8900
134	88600	37600
135	94300	40800
136	42000	20400
137	38600	7800
138	21900	1800
139	49700	96100
140	54200	96500
141	71800	86900
142	29700	4500
143	41400	6900
144	60600	95900
145	57500	9900
146	33000	10100
147	36400	7400
148	25700	2200
149	37100	6400
150	60000	99400
151	95100	53600
152	53400	89600
153	29700	9600
154	46700	14900
155	43800	91700
156	38500	88300
157	23300	23900
158	48100	94500
159	41400	12800
160	60200	75200
161	59200	15100
162	26700	8200
163	58700	94600
164	72800	99100
165	24200	13600
166	29200	900
167	91600	48000
168	49400	91800
169	200	14900
170	2400	10500
171	93300	57700
172	22700	4900
173	65100	94700
174	99100	51200
175	80500	70400
176	25300	6600
177	62800	82400
178	19900	1800
179	83300	53400
180	63300	86400
181	34300	4200
182	56500	99100
183	60300	99600
184	40400	3000
185	43400	9200
186	82200	46500
187	39300	8100
188	35100	7800
189	39000	5600
190	53600	96700
191	55300	98500
192	65200	86800
193	47200	90000
194	82400	54500
195	37000	18900
196	19600	2100
197	52400	97400
198	59000	87800
199	55100	95100
200	48000	4800
201	38400	18500
202	32700	22800
203	56700	96600
204	53700	96400
205	92900	57700
206	49100	14100
207	33600	1200
208	49600	95300
209	14900	5700
210	39400	6300
211	25000	25200
212	23800	6300
213	24500	22200
214	26300	5000
215	23100	3700
216	51200	1300
217	86800	48100
218	99400	63500
219	69700	8700
220	98900	53500
221	46200	95400
222	35500	24000
223	33500	8900
224	81700	54400
225	50100	15400
226	19600	6600
227	38900	3600
228	41300	6200
229	27700	11100
230	24500	9500
231	87800	46900
232	40700	10900
233	32600	5200
234	99900	60100
235	97400	43300
236	57800	96900
237	54800	78400
238	51900	2100
239	43600	13500
240	98600	43600
241	48300	1900
242	42000	19700
243	41700	12200
244	82500	60900
245	34700	9600
246	96700	53000
247	74900	54200
248	27100	2000
249	30700	7200
250	42000	13000
251	82100	39800
252	14700	9700
253	95000	51200
254	39400	19000
255	96200	58400
256	93400	53000
257	61100	92600
258	32300	18500
259	96600	53000
260	37800	18900
261	33400	18900
262	34000	7700
263	26500	13600
264	30300	31500
265	53300	85200
266	56200	97700
267	99500	47700
268	86200	64900
269	37900	19000
270	93500	56500
271	17800	1100
272	46500	23700
273	21400	17900
274	47900	91300
275	90300	53000
276	37900	10200
277	26800	800
278	92200	51100
279	40300	3300
280	28900	7100
281	47400	19600
282	37400	9000
283	55700	2500
284	95700	58100
285	13400	10300
286	55400	11600
287	39200	11100
288	20000	39200
289	92900	51400
290	52100	90500
291	34100	21000
292	39400	7700
293	33900	13000
294	93800	63500
295	31500	25800
296	97000	71000
297	37600	4800
298	40200	12800
299	95400	45000
300	52800	30200
301	43300	13700
302	35300	11300
303	61100	99100
304	23500	1200
305	54400	98800
306	95800	52000
307	52100	7600
308	33400	2300
309	26400	6300
310	59100	91300
311	53200	97200
312	58900	95600
313	56800	97200
314	98300	62100
315	41800	81700
316	31200	3900
317	33400	17600
DEMAND_SECTION
1	0
2	1
3	1
4	1
5	1
6	1
7	1
8	1
9	1
10	1
11	1
12	1
13	1
14	1
15	1
16	1
17	1
18	1
19	1
20	1
21	1
22	1
23	1
24	1
25	1
26	1
27	1
28	1
29	1
30	1
31	1
32	1
33	1
34	1
35	1
36	1
37	1
38	1
39	1
40	1
41	1
42	1
43	1
44	1
45	1
46	1
47	1
48	1
49	1
50	1
51	1
52	1
53	1
54	1
55	1
56	1
57	1
58	1
59	1
60	1
61	1
62	1
63	1
64	1
65	1
66	1
67	1
68	1
69	1
70	1
71	1
72	1
73	1
74	1
75	1
76	1
77	1
78	1
79	1
80	1
81	1
82	1
83	1
84	1
85	1
86	1
87	1
88	1
89	1
90	1
91	1
92	1
93	1
94	1
95	1
96	1
97	1
98	1
99	1
100	1
101	1
102	1
103	1
104	1
105	1
106	1
107	1
108	1
109	1
110	1
111	1
112	1
113	1
114	1
115	1
116	1
117	1
118	1
119	1
120	1
121	1
122	1
123	1
124	1
125	1
126	1
127	1
128	1
129	1
130	1
131	1
132	1
133	1
134	1
135	1
136	1
137	1
138	1
139	1
140	1
141	1
142	1
143	1
144	1
145	1
146	1
147	1
148	1
149	1
150	1
151	1
152	1
153	1
154	1
155	1
156	1
157	1
158	1
159	1
160	1
161	1
162	1
163	1
164	1
165	1
166	1
167	1
168	1
169	1
170	1
171	1
172	1
173	1
174	1
175	1
176	1
177	1
178	1
179	1
180	1
181	1
182	1
183	1
184	1
185	1
186	1
187	1
188	1
189	1
190	1
191	1
192	1
193	1
194	1
195	1
196	1
197	1
198	1
199	1
200	1
201	1
202	1
203	1
204	1
205	1
206	1
207	1
208	1
209	1
210	1
211	1
212	1
213	1
214	1
215	1
216	1
217	1
218	1
219	1
220	1
221	1
222	1
223	1
224	1
225	1
226	1
227	1
228	1
229	1
230	1
231	1
232	1
233	1
234	1
235	1
236	1
237	1
238	1
239	1
240	1
241	1
242	1
243	1
244	1
245	1
246	1
247	1
248	1
249	1
250	1
251	1
252	1
253	1
254	1
255	1
256	1
257	1
258	1
259	1
260	1
261	1
262	1
263	1
264	1
265	1
266	1
267	1
268	1
269	1
270	1
271	1
272	1
273	1
274	1
275	1
276	1
277	1
278	1
279	1
280	1
281	1
282	1
283	1
284	1
285	1
286	1
287	1
288	1
289	1
290	1
291	1
292	1
293	1
294	1
295	1
296	1
297	1
298	1
299	1
300	1
301	1
302	1
303	1
304	1
305	1
306	1
307	1
308	1
309	1
310	1
311	1
312	1
313	1
314	1
315	1
316	1
317	1
DEPOT_SECTION
1
-1
EOF
