experiment/data/lkh-res/Vrp-Set-X-n317/Vrp-Set-X-n317-lkh/0.lkh1.tour
NAME : 0.7867924.tour
COMMENT : Length = 7867924
COMMENT : Found by LKH-3 [Keld Helsgaun] Tue Apr  9 06:39:15 2024
TYPE : TOUR
DIMENSION : 369
TOUR_SECTION
1
28
314
218
234
44
8
319
72
124
150
183
303
144
347
79
86
156
16
315
288
366
52
173
29
92
164
141
325
196
178
138
48
304
271
324
193
274
13
221
155
43
338
119
25
42
4
277
248
351
65
185
70
105
143
228
357
118
206
90
225
154
91
337
147
137
292
187
133
282
367
142
316
233
181
308
166
362
11
258
261
317
131
126
332
95
265
152
93
290
109
350
58
75
301
239
250
298
346
291
64
269
201
260
195
363
106
62
263
165
103
94
340
148
83
104
214
215
59
333
74
40
246
259
306
253
343
49
99
174
220
132
2
335
294
127
35
296
123
101
320
53
68
17
117
122
268
331
172
309
120
176
212
226
327
237
198
81
257
22
310
349
247
244
50
179
194
224
326
116
175
55
160
125
264
355
273
213
37
211
157
34
354
197
311
305
87
67
98
361
300
186
217
231
251
71
341
45
113
135
82
134
219
336
107
241
61
200
115
36
348
167
102
278
289
275
130
339
205
38
171
270
7
256
345
227
279
184
33
46
207
365
149
73
210
89
189
297
329
108
191
182
266
3
128
364
163
312
236
313
203
199
352
112
223
188
69
262
249
368
272
96
281
85
111
19
323
146
245
12
302
293
39
334
151
20
23
255
284
26
353
216
76
283
238
31
10
328
5
232
243
159
287
276
358
41
202
222
54
47
295
359
129
280
56
153
100
51
369
88
32
169
170
318
97
209
66
18
252
285
322
168
27
139
208
14
158
360
63
161
145
286
24
307
342
9
230
121
229
84
162
356
180
80
77
192
177
30
321
110
6
21
136
242
254
344
204
190
78
114
140
15
330
299
60
267
57
240
235
-1
EOF
